(set-info :smt-lib-version 2.6)
(set-logic QF_UFLRA)
(set-info :source |
MathSat group

|)
(set-info :category "random")
(set-info :status unsat)
(declare-fun x0 () Real)
(declare-fun x1 () Real)
(declare-fun x2 () Real)
(declare-fun x3 () Real)
(declare-fun x4 () Real)
(declare-fun x5 () Real)
(declare-fun x6 () Real)
(declare-fun x7 () Real)
(declare-fun x8 () Real)
(declare-fun x9 () Real)
(declare-fun x10 () Real)
(declare-fun x11 () Real)
(declare-fun x12 () Real)
(declare-fun x13 () Real)
(declare-fun x14 () Real)
(declare-fun x15 () Real)
(declare-fun x16 () Real)
(declare-fun x17 () Real)
(declare-fun x18 () Real)
(declare-fun x19 () Real)
(declare-fun x20 () Real)
(declare-fun x21 () Real)
(declare-fun x22 () Real)
(declare-fun x23 () Real)
(declare-fun x24 () Real)
(declare-fun x25 () Real)
(declare-fun x26 () Real)
(declare-fun x27 () Real)
(declare-fun x28 () Real)
(declare-fun x29 () Real)
(declare-fun x30 () Real)
(declare-fun x31 () Real)
(declare-fun x32 () Real)
(declare-fun x33 () Real)
(declare-fun x34 () Real)
(declare-fun x35 () Real)
(declare-fun x36 () Real)
(declare-fun x37 () Real)
(declare-fun x38 () Real)
(declare-fun x39 () Real)
(declare-fun x40 () Real)
(declare-fun x41 () Real)
(declare-fun x42 () Real)
(declare-fun x43 () Real)
(declare-fun x44 () Real)
(declare-fun x45 () Real)
(declare-fun x46 () Real)
(declare-fun x47 () Real)
(declare-fun x48 () Real)
(declare-fun x49 () Real)
(declare-fun f0_1 (Real) Real)
(declare-fun f0_2 (Real Real) Real)
(declare-fun f0_3 (Real Real Real) Real)
(declare-fun f0_4 (Real Real Real Real) Real)
(declare-fun P0 () Bool)
(declare-fun P1 () Bool)
(declare-fun P2 () Bool)
(declare-fun P3 () Bool)
(declare-fun P4 () Bool)
(declare-fun P5 () Bool)
(declare-fun P6 () Bool)
(declare-fun P7 () Bool)
(declare-fun P8 () Bool)
(declare-fun P9 () Bool)
(declare-fun P10 () Bool)
(declare-fun P11 () Bool)
(declare-fun P12 () Bool)
(declare-fun P13 () Bool)
(declare-fun P14 () Bool)
(declare-fun P15 () Bool)
(declare-fun P16 () Bool)
(declare-fun P17 () Bool)
(declare-fun P18 () Bool)
(declare-fun P19 () Bool)
(declare-fun P20 () Bool)
(declare-fun P21 () Bool)
(declare-fun P22 () Bool)
(declare-fun P23 () Bool)
(declare-fun P24 () Bool)
(declare-fun P25 () Bool)
(declare-fun P26 () Bool)
(declare-fun P27 () Bool)
(declare-fun P28 () Bool)
(declare-fun P29 () Bool)
(declare-fun P30 () Bool)
(declare-fun P31 () Bool)
(declare-fun P32 () Bool)
(declare-fun P33 () Bool)
(declare-fun P34 () Bool)
(declare-fun P35 () Bool)
(declare-fun P36 () Bool)
(declare-fun P37 () Bool)
(declare-fun P38 () Bool)
(declare-fun P39 () Bool)
(declare-fun P40 () Bool)
(declare-fun P41 () Bool)
(declare-fun P42 () Bool)
(declare-fun P43 () Bool)
(declare-fun P44 () Bool)
(declare-fun P45 () Bool)
(declare-fun P46 () Bool)
(declare-fun P47 () Bool)
(declare-fun P48 () Bool)
(declare-fun P49 () Bool)
(assert (let ((?v_68 (* 7 x28)) (?v_26 (* 12 x4)) (?v_38 (< (+ (- (* 27 x19) (* 21 x14)) (* 4 x16)) 29)) (?v_21 (* 16 x27)) (?v_84 (* 11 x45)) (?v_62 (< (- (- (* 10 x3) (* 6 x41)) (* 4 x29)) 20)) (?v_170 (= (- (+ (* 21 x15) (* 15 x47)) (* 4 x49)) 6))) (let ((?v_4 (< (- (- (* 26 x31) ?v_21) (* 15 x24)) 29)) (?v_3 (distinct (f0_1 x14) (f0_2 x16 x33))) (?v_127 (distinct (f0_2 x0 x8) (f0_2 x4 x34))) (?v_190 (= x42 x8)) (?v_235 (= (f0_1 x37) x4)) (?v_57 (f0_1 x42))) (let ((?v_133 (distinct ?v_57 (f0_2 x25 x24))) (?v_29 (distinct (f0_1 x25) (f0_2 x32 x19))) (?v_35 (= (f0_1 x11) (f0_1 x31))) (?v_36 (f0_1 x47))) (let ((?v_141 (distinct ?v_36 (f0_2 x2 x6))) (?v_186 (= x2 x0)) (?v_79 (= ?v_57 (f0_1 x40))) (?v_67 (= (f0_2 x25 x13) (f0_1 x35))) (?v_213 (= (f0_1 x39) x36)) (?v_209 (distinct x35 (f0_2 x46 x1))) (?v_222 (distinct ?v_36 (f0_2 x22 x29))) (?v_229 (= (f0_2 x39 x34) (f0_2 x14 x49))) (?v_28 (distinct x40 (f0_2 x32 x32))) (?v_42 (f0_1 x7))) (let ((?v_139 (= ?v_42 (f0_2 x19 x41))) (?v_5 (f0_1 x30))) (let ((?v_175 (distinct (f0_1 x36) ?v_5)) (?v_39 (distinct (f0_2 x43 x11) x16)) (?v_208 (distinct (f0_2 x22 x1) (f0_2 x29 x2))) (?v_70 (f0_1 x4))) (let ((?v_148 (distinct ?v_70 x23)) (?v_158 (= (f0_2 x15 x0) x3)) (?v_98 (= x20 (f0_2 x8 x40))) (?v_2 (distinct (f0_2 x11 x19) x48)) (?v_193 (= x30 (f0_1 x46))) (?v_109 (f0_1 x19))) (let ((?v_204 (distinct x8 ?v_109)) (?v_179 (= x17 (f0_2 x12 x21))) (?v_118 (distinct (f0_2 x13 x30) (f0_2 x21 x31))) (?v_107 (distinct x17 x29)) (?v_194 (= (f0_1 x22) x0)) (?v_106 (distinct (f0_2 x19 x21) (f0_1 x24))) (?v_155 (= x26 (f0_1 x12))) (?v_15 (= (f0_2 x46 x0) (f0_2 x37 x33))) (?v_159 (distinct (f0_2 x36 x48) x20)) (?v_47 (= ?v_109 x18)) (?v_181 (= (f0_1 x29) (f0_2 x37 x30))) (?v_113 (= x18 x4)) (?v_205 (= (f0_2 x48 x27) (f0_2 x47 x35))) (?v_90 (distinct x21 ?v_36)) (?v_12 (= x25 x14)) (?v_219 (= (f0_2 x26 x18) (f0_1 x13))) (?v_32 (distinct ?v_42 (f0_1 x20))) (?v_101 (= (f0_2 x10 x7) (f0_2 x36 x8))) (?v_0 (= x40 (f0_2 x48 x45))) (?v_108 (distinct ?v_5 (f0_2 x8 x4))) (?v_52 (= (f0_1 x0) (f0_2 x35 x11))) (?v_102 (= (f0_2 x20 x46) x10)) (?v_180 (distinct (f0_1 x49) x8)) (?v_153 (distinct (f0_1 x1) ?v_70)) (?v_253 (= x11 (f0_2 x43 x29))) (?v_223 (not P20)) (?v_202 (not P22)) (?v_94 (not P11)) (?v_11 (not P47)) (?v_245 (not P46)) (?v_44 (not ?v_39))) (let ((?v_10 (not ?v_15)) (?v_183 (not ?v_2)) (?v_1 (not P18)) (?v_256 (not ?v_193)) (?v_75 (not P42)) (?v_20 (not ?v_3)) (?v_31 (not ?v_175)) (?v_63 (not P21)) (?v_189 (not ?v_4)) (?v_69 (not ?v_108)) (?v_49 (not P7)) (?v_215 (not P45)) (?v_53 (not P10)) (?v_9 (not ?v_153)) (?v_16 (not P6)) (?v_37 (not P15)) (?v_88 (not ?v_219)) (?v_22 (not ?v_113)) (?v_225 (not ?v_12)) (?v_182 (not ?v_155)) (?v_132 (not P9)) (?v_167 (not ?v_180)) (?v_65 (not P38)) (?v_72 (not ?v_222)) (?v_134 (not ?v_32)) (?v_237 (not P28)) (?v_191 (not ?v_208)) (?v_59 (not ?v_28)) (?v_129 (not P35)) (?v_89 (not P26)) (?v_87 (not ?v_35)) (?v_146 (not P2)) (?v_86 (not ?v_139)) (?v_239 (not P27)) (?v_112 (not P31)) (?v_93 (not ?v_47)) (?v_48 (not P37)) (?v_164 (not P34)) (?v_78 (not P19)) (?v_56 (not P12)) (?v_58 (not ?v_52)) (?v_95 (not ?v_213)) (?v_77 (not P1)) (?v_188 (not ?v_253)) (?v_80 (not P44)) (?v_71 (not P16)) (?v_131 (not P40)) (?v_172 (not ?v_67)) (?v_104 (not ?v_29)) (?v_96 (not ?v_148)) (?v_123 (not P48)) (?v_120 (not ?v_79)) (?v_212 (not P5)) (?v_128 (not P3)) (?v_115 (not P39)) (?v_147 (not P41)) (?v_224 (not ?v_0)) (?v_165 (not ?v_90)) (?v_243 (not P36)) (?v_233 (not P0)) (?v_135 (not P49)) (?v_140 (not P43)) (?v_160 (not ?v_102)) (?v_111 (not ?v_106)) (?v_259 (not ?v_204)) (?v_150 (not P33)) (?v_124 (not ?v_179)) (?v_125 (not ?v_118)) (?v_176 (not P29)) (?v_195 (not ?v_101)) (?v_144 (not P4)) (?v_226 (not ?v_141)) (?v_246 (not ?v_205)) (?v_151 (not P14)) (?v_162 (not ?v_38)) (?v_250 (not ?v_62)) (?v_174 (not P25)) (?v_178 (not P17)) (?v_221 (not P13)) (?v_187 (not P30)) (?v_247 (not ?v_158)) (?v_199 (not ?v_190)) (?v_198 (not ?v_235)) (?v_257 (not ?v_107)) (?v_218 (not P8)) (?v_251 (not ?v_186)) (?v_241 (or P22 ?v_186)) (?v_254 (or ?v_102 P40)) (?v_258 (not P24)) (?v_240 (not ?v_209)) (?v_236 (not ?v_98)) (?v_232 (not P23))) (let ((?v_252 (or ?v_172 P41)) (?v_228 (not ?v_127)) (?v_248 (not ?v_229)) (?v_249 (not ?v_170)) (?v_238 (not ?v_159)) (?v_255 (not ?v_133)) (?v_25 (< (- (+ (* 19 x28) (* 21 x25)) 0) 11))) (let ((?v_34 (not ?v_25)) (?v_81 (<= (+ (* 3 x8) (* 14 x36)) 3)) (?v_6 (<= (+ (* 8 x48) (* 12 x25) (* 18 x39)) 22))) (let ((?v_126 (not ?v_6)) (?v_76 (<= (+ (* 20 x33) (* 23 x23) (* 11 x21)) 6)) (?v_66 (<= (+ (- 0 (* 13 x13)) x23) 16))) (let ((?v_154 (not ?v_66)) (?v_97 (< (+ (* 2 x33) (* 8 x23) (* 14 x46)) 20))) (let ((?v_122 (not ?v_97)) (?v_197 (< (+ (* 2 x2) (* 8 x21)) 0))) (let ((?v_92 (not ?v_197)) (?v_82 (not ?v_76)) (?v_220 (not ?v_81)) (?v_143 (<= (+ (- 0 (* 19 x12)) (* 15 x28)) 20))) (let ((?v_234 (not ?v_143)) (?v_230 (= (+ (- (* 4 x2) x17) (* 18 x35)) 1))) (let ((?v_242 (not ?v_230)) (?v_203 (< (+ (- (* (- 25) x32) (* 8 x42)) (* 16 x46)) (- 5)))) (let ((?v_231 (not ?v_203)) (?v_157 (<= (- (+ (* 26 x17) (* 23 x18)) (* 17 x10)) (- 7)))) (let ((?v_33 (not ?v_157)) (?v_23 (< (+ (* (- 20) x47) (* 27 x3) (* 18 x32)) 22)) (?v_46 (<= (+ (- (* 16 x9) (* 10 x19)) (* 13 x36)) (- 4))) (?v_7 (<= (- (- (* (- 9) x29) (* 2 x49)) (* 7 x22)) 0)) (?v_64 (<= (+ (* 26 x2) (* 27 x4)) (- 4))) (?v_14 (<= (- (- (* (- 4) x5) (* 17 x35)) (* 21 x39)) (- 1))) (?v_99 (< (+ (- (* 4 x27) (* 4 x35)) (* 7 x2)) (- 18)))) (let ((?v_18 (not ?v_99)) (?v_105 (<= (- (+ (* (- 1) x9) (* 27 x16)) (* 23 x7)) 18))) (let ((?v_119 (not ?v_105)) (?v_8 (< (+ (* (- 18) x25) ?v_84 (* 9 x42)) 10)) (?v_74 (< (- (+ (* (- 10) x47) (* 23 x12)) (* 8 x4)) (- 1))) (?v_13 (< (+ (- (* (- 12) x48) (* 6 x31)) ?v_26) (- 10)))) (let ((?v_24 (not ?v_13)) (?v_19 (< (+ (- (* (- 15) x26) (* 18 x8)) (* 20 x20)) 22)) (?v_217 (not ?v_7)) (?v_55 (< (+ (- (* (- 13) x37) (* 19 x35)) (* 17 x5)) (- 16))) (?v_54 (<= (- (+ (* (- 8) x33) (* 19 x32)) (* 5 x40)) 15)) (?v_216 (< (- (* 4 x1) (* 10 x32)) (- 20)))) (let ((?v_30 (not ?v_216)) (?v_50 (<= (- (+ (* 18 x17) (* 7 x44)) (* 5 x26)) (- 17))) (?v_17 (< (- (+ (* (- 21) x9) (* 20 x25)) (* 24 x26)) 18)) (?v_73 (not ?v_19)) (?v_27 (< (- (- (* (- 24) x6) (* 3 x23)) (* 5 x38)) 13)) (?v_41 (< (+ (- ?v_21 (* 10 x9)) (* 19 x31)) (- 12)))) (let ((?v_40 (not ?v_41)) (?v_130 (distinct (+ (- (* (- 14) x26) (* 16 x15)) (* 2 x36)) 5)) (?v_45 (<= (- (+ (* (- 5) x47) (* 24 x30)) (* 13 x41)) 2)) (?v_145 (< (+ (* (- 20) x40) ?v_26 (* 4 x19)) (- 1)))) (let ((?v_61 (not ?v_145)) (?v_91 (not ?v_27)) (?v_60 (not ?v_14)) (?v_43 (= (+ (* (- 17) x44) (* 4 x32) x25) (- 7))) (?v_166 (not ?v_45)) (?v_100 (not ?v_46)) (?v_169 (<= (+ (* 4 x46) (* 3 x40) (* 8 x40)) (- 7)))) (let ((?v_117 (not ?v_169)) (?v_51 (<= (- (+ (* 21 x42) (* 24 x20)) (* 24 x31)) (- 27))) (?v_103 (not ?v_50))) (let ((?v_201 (not ?v_51)) (?v_116 (not ?v_17)) (?v_161 (not ?v_55)) (?v_121 (< (- (- ?v_68 (* 13 x9)) (* 8 x46)) (- 19))) (?v_156 (<= (+ (- (* (- 27) x11) (* 13 x29)) (* 6 x15)) 22))) (let ((?v_210 (not ?v_156)) (?v_142 (not ?v_64)) (?v_196 (= (- (+ (* (- 26) x9) ?v_68) (* 18 x4)) (- 7))) (?v_85 (< (- (+ (* 23 x3) (* 26 x25)) (* 3 x31)) (- 9))) (?v_110 (< (- (+ (* (- 6) x42) (* 25 x49)) (* 26 x35)) 26))) (let ((?v_83 (not ?v_110)) (?v_149 (<= (+ (- (* (- 24) x21) (* 7 x27)) ?v_84) (- 3))) (?v_138 (<= (- (+ (* (- 11) x46) (* 17 x31)) (* 19 x38)) 27))) (let ((?v_171 (not ?v_138)) (?v_137 (<= (- (- (* (- 26) x26) (* 26 x23)) (* 12 x37)) (- 23))) (?v_114 (< (+ (- (* 19 x4) (* 9 x25)) (* 21 x12)) (- 29))) (?v_168 (not ?v_23)) (?v_136 (not ?v_121)) (?v_211 (not ?v_130)) (?v_185 (not ?v_85))) (let ((?v_206 (not ?v_137)) (?v_152 (< (- (- (* (- 20) x46) (* 23 x22)) (* 10 x40)) 4)) (?v_192 (not ?v_149))) (let ((?v_200 (not ?v_152)) (?v_163 (not ?v_8)) (?v_173 (not ?v_114)) (?v_177 (not ?v_54)) (?v_207 (not ?v_74)) (?v_184 (<= (- (- (* 26 x16) (* 2 x6)) (* 26 x44)) (- 1)))) (let ((?v_244 (not ?v_184)) (?v_214 (not ?v_196)) (?v_227 (not ?v_43))) (and (and (and (and (and (and (and (and (and (and (and (and (and (and (and (and (and (and (and (and (and (and (and (and (and (and (and (and (and (and (and (and (and (and (and (and (and (and (and (and (and (and (and (and (and (and (and (and (and (and (and (and (and (and (and (and (and (and (and (and (and (and (and (and (and (and (and (and (and (and (and (and (and (and (and (and (and (and (and (and (and (and (and (and (and (and (and (and (and (and (and (and (and (and (and (and (and (and (and (and (and (and (and (and (and (and (and (and (and (and (and (and (and (and (and (and (and (and (and (and (and (and (and (and (and (and (and (and (and (and (and (and (and (and (and (and (and (and (and (and (and (and (and (and (and (and (and (and (and (and (and (and (and (and (and (and (and (and (and (and (and (and (and (and (and (and (and (and (and (and (and (and (and (and (and (and (and (and (and (and (and (and (and (and (and (and (and (and (and (and (and (and (and (and (and (and (and (and (and (and (and (and (and (and (and (and (and (and (and (and (and (and (and (and (and (and (and (and (and (and (and (and (and (and (and (and (and (and (and (and (and (and (and (and (and (and (and (and (and (and (and (and (and (and (and (and (and (and (and (and (and (and (and (and (and (and (and (and (and (and (and (and (and (and (and (and (and (and (and (and (and (and (and (and (and (and (and (and (and (and (and (and (and (and (and (and (and (and (and (and (and (and (and (and (and (and (and (and (and (and (and (and (and (and (and (and (and (and (and (and (and (and (and (and (and (and (and (and (and (and (and (and (and (and (and (and (and (and (and (and (and (and (and (and (and (and (and (and (and (and (and (and (and (and (and (and (and (and (and (and (and (and (and (and (and (and (and (and (and (and (and (and (and (and (and (and (and (and (and (and (and (and (and (and (and (and (and (and (and (and (and (and (and (and (and (and (and (and (and (and (and (and (and (and (and (and (and (and (and (and (and (and (and (and (and (and (and (and (and (and (and (and (and (and (and (and (and (and (and (and (and (and (and (and (and (and (and (and (and (and (and (and (and (and (and (and (and (and (and (and (and (and (and (and (and (and (and (and (and (and (and (and (and (and (and (and (and (and (and (and (and (and (and (and (and (and (and (and (and (and (and (and (and (and (and (and (and (and (and (and (and (and (and (and (and (and (and (and (and (and (and (and (and (and (and (and (and (and (and (and (and (and (and (and (and (and (and (and (and (and (and (and (and (and (and (and (and (and (and (and (and (and (and (and (and (and (and (and (and (and (and (and (and (and (and (and (and (and (and (and (and (and (and (and (and (and (and (and (and (and (and (and (and (and (and (and (and (and (and (and (and (and (and (and (and (and (and (and (and (and (and (and (and (and (and (and (and (and (and (and (and (and (and (and (and (and (and (and (and (and (and (and (and (and (and (and (and (and (and (or (or ?v_231 ?v_223) ?v_202) (or (or ?v_4 ?v_33) ?v_23)) (or (or ?v_3 ?v_46) ?v_0)) (or (or ?v_7 ?v_64) ?v_14)) (or (or ?v_18 ?v_47) ?v_119)) (or (or P1 ?v_94) P41)) (or (or ?v_8 ?v_11) ?v_245)) (or (or ?v_44 ?v_10) ?v_0)) (or (or ?v_183 P24) ?v_35)) (or (or P37 P40) ?v_1)) (or (or P41 ?v_1) P46)) (or (or ?v_256 ?v_75) ?v_2)) (or (or ?v_74 ?v_34) P33)) (or (or ?v_20 P47) P26)) (or (or P43 ?v_24) ?v_3)) (or (or ?v_4 P13) ?v_31)) (or (or ?v_63 ?v_81) ?v_19)) (or (or ?v_189 P43) ?v_69)) (or (or P47 ?v_12) ?v_6)) (or (or ?v_126 ?v_217) ?v_49)) (or (or P36 ?v_215) ?v_53)) (or (or ?v_9 P31) ?v_16)) (or (or ?v_55 ?v_37) ?v_54)) (or (or ?v_8 ?v_30) ?v_28)) (or (or ?v_118 ?v_9) ?v_10)) (or (or ?v_88 ?v_62) ?v_11)) (or (or ?v_186 ?v_22) P11)) (or (or ?v_225 ?v_67) P18)) (or (or ?v_182 ?v_50) ?v_13)) (or (or ?v_76 P22) P38)) (or (or ?v_17 ?v_132) ?v_14)) (or (or ?v_15 ?v_16) ?v_167)) (or (or ?v_29 ?v_17) ?v_65)) (or (or ?v_72 P4) ?v_18)) (or (or P35 ?v_73) P3)) (or (or ?v_20 ?v_27) ?v_134)) (or (or P29 ?v_18) ?v_40)) (or (or P21 ?v_22) ?v_130)) (or (or P11 P44) ?v_237)) (or (or ?v_45 ?v_13) P33)) (or (or ?v_127 ?v_38) ?v_23)) (or (or ?v_24 ?v_25) P0)) (or (or ?v_61 P31) ?v_191)) (or (or ?v_91 ?v_59) ?v_29)) (or (or ?v_30 ?v_60) P27)) (or (or ?v_9 P42) ?v_129)) (or (or ?v_31 ?v_89) ?v_32)) (or (or ?v_33 P1) ?v_170)) (or (or ?v_34 ?v_35) ?v_141)) (or (or ?v_37 ?v_38) ?v_43)) (or (or ?v_39 ?v_102) ?v_87)) (or (or P13 ?v_40) P8)) (or (or ?v_146 P25) P13)) (or (or ?v_41 ?v_39) ?v_86)) (or (or ?v_43 ?v_52) ?v_44)) (or (or ?v_239 ?v_28) ?v_45)) (or (or ?v_112 ?v_166) ?v_100)) (or (or P9 ?v_93) ?v_117)) (or (or ?v_48 ?v_0) ?v_51)) (or (or ?v_154 ?v_48) ?v_164)) (or (or ?v_78 ?v_49) ?v_122)) (or (or ?v_103 ?v_44) ?v_56)) (or (or ?v_201 ?v_58) ?v_116)) (or (or ?v_95 P48) ?v_133)) (or (or ?v_53 ?v_77) ?v_54)) (or (or ?v_161 ?v_56) ?v_121)) (or (or P28 ?v_52) ?v_188)) (or (or ?v_0 ?v_47) ?v_80)) (or (or P47 ?v_106) ?v_79)) (or (or P43 ?v_58) ?v_71)) (or (or ?v_8 ?v_59) ?v_60)) (or (or ?v_90 ?v_107) ?v_61)) (or (or ?v_62 P18) ?v_63)) (or (or ?v_210 ?v_40) ?v_24)) (or (or P25 ?v_142) ?v_65)) (or (or P39 ?v_64) ?v_131)) (or (or ?v_66 ?v_172) ?v_27)) (or (or ?v_104 P10) ?v_196)) (or (or P0 ?v_85) ?v_69)) (or (or P7 ?v_69) ?v_23)) (or (or ?v_92 ?v_96) ?v_71)) (or (or ?v_72 ?v_73) ?v_74)) (or (or ?v_75 ?v_82) P7)) (or (or ?v_77 ?v_78) ?v_123)) (or (or ?v_78 ?v_120) ?v_25)) (or (or ?v_80 ?v_220) ?v_82)) (or (or P44 ?v_27) ?v_59)) (or (or ?v_49 ?v_60) ?v_27)) (or (or ?v_181 ?v_55) ?v_83)) (or (or ?v_212 P47) ?v_51)) (or (or ?v_83 ?v_159) ?v_149)) (or (or ?v_128 ?v_85) ?v_86)) (or (or P27 ?v_87) ?v_44)) (or (or ?v_0 P14) ?v_88)) (or (or ?v_115 ?v_171) ?v_147)) (or (or ?v_101 P10) ?v_54)) (or (or ?v_27 ?v_89) ?v_224)) (or (or ?v_165 ?v_91) ?v_137)) (or (or ?v_32 ?v_243) ?v_92)) (or (or P36 P49) ?v_233)) (or (or ?v_56 ?v_40) ?v_93)) (or (or ?v_234 ?v_91) ?v_37)) (or (or P12 P33) ?v_94)) (or (or ?v_135 ?v_9) ?v_24)) (or (or ?v_95 ?v_48) ?v_98)) (or (or ?v_190 ?v_53) ?v_96)) (or (or P28 ?v_77) ?v_97)) (or (or ?v_98 ?v_99) P29)) (or (or ?v_100 P19) ?v_140)) (or (or ?v_101 ?v_35) ?v_160)) (or (or ?v_103 ?v_104) P49)) (or (or ?v_105 P47) ?v_111)) (or (or ?v_52 ?v_107) ?v_87)) (or (or ?v_108 P5) ?v_35)) (or (or ?v_66 ?v_259) ?v_35)) (or (or ?v_67 ?v_114) ?v_110)) (or (or ?v_111 ?v_38) ?v_71)) (or (or ?v_112 ?v_168) ?v_113)) (or (or ?v_49 ?v_150) ?v_106)) (or (or ?v_77 ?v_114) ?v_115)) (or (or ?v_16 P35) ?v_116)) (or (or P22 ?v_124) ?v_8)) (or (or ?v_117 ?v_125) ?v_61)) (or (or ?v_119 ?v_102) P25)) (or (or ?v_120 ?v_158) ?v_136)) (or (or P17 ?v_122) ?v_123)) (or (or ?v_14 ?v_8) ?v_176)) (or (or ?v_103 ?v_124) P3)) (or (or ?v_125 P20) P31)) (or (or P36 ?v_126) ?v_127)) (or (or ?v_195 ?v_2) ?v_128)) (or (or ?v_18 ?v_129) ?v_211)) (or (or ?v_131 ?v_185) ?v_132)) (or (or ?v_118 P28) ?v_133)) (or (or ?v_144 ?v_74) ?v_134)) (or (or ?v_135 P15) ?v_99)) (or (or ?v_33 P49) ?v_136)) (or (or ?v_206 P43) ?v_138)) (or (or P15 ?v_139) ?v_79)) (or (or ?v_140 ?v_226) P44)) (or (or ?v_142 ?v_139) ?v_31)) (or (or P23 ?v_143) ?v_13)) (or (or ?v_60 ?v_144) ?v_145)) (or (or ?v_31 P29) ?v_146)) (or (or ?v_94 ?v_246) ?v_34)) (or (or ?v_137 ?v_95) P25)) (or (or ?v_152 ?v_147) ?v_151)) (or (or ?v_148 P49) ?v_35)) (or (or ?v_27 ?v_142) ?v_192)) (or (or ?v_58 ?v_64) P10)) (or (or ?v_150 ?v_0) ?v_2)) (or (or ?v_151 ?v_200) P48)) (or (or ?v_131 ?v_102) ?v_163)) (or (or ?v_118 ?v_120) ?v_153)) (or (or ?v_130 ?v_154) ?v_162)) (or (or ?v_155 ?v_156) ?v_157)) (or (or ?v_158 P13) ?v_58)) (or (or ?v_155 ?v_45) ?v_250)) (or (or ?v_54 P28) ?v_35)) (or (or ?v_173 ?v_126) ?v_174)) (or (or ?v_159 ?v_54) P49)) (or (or ?v_178 ?v_103) ?v_7)) (or (or ?v_121 ?v_160) ?v_161)) (or (or ?v_126 P42) ?v_39)) (or (or ?v_162 ?v_117) P8)) (or (or ?v_221 ?v_155) ?v_163)) (or (or ?v_130 ?v_119) ?v_159)) (or (or ?v_79 ?v_15) ?v_151)) (or (or ?v_58 P4) ?v_194)) (or (or P37 P46) ?v_95)) (or (or ?v_62 ?v_146) P40)) (or (or P16 ?v_47) P13)) (or (or ?v_31 ?v_83) ?v_133)) (or (or ?v_67 ?v_164) ?v_91)) (or (or ?v_78 ?v_76) ?v_165)) (or (or P3 ?v_3) P5)) (or (or ?v_166 ?v_127) ?v_167)) (or (or ?v_168 ?v_23) ?v_94)) (or (or P40 ?v_118) ?v_111)) (or (or ?v_19 ?v_169) ?v_54)) (or (or ?v_56 ?v_187) ?v_72)) (or (or ?v_117 ?v_135) ?v_53)) (or (or ?v_147 P32) ?v_55)) (or (or P43 ?v_41) ?v_170)) (or (or ?v_171 ?v_154) ?v_172)) (or (or ?v_37 ?v_138) ?v_69)) (or (or P41 ?v_50) ?v_173)) (or (or ?v_174 ?v_177) ?v_56)) (or (or ?v_48 ?v_100) P6)) (or (or ?v_175 ?v_110) ?v_44)) (or (or ?v_176 ?v_91) ?v_177)) (or (or ?v_165 ?v_50) ?v_98)) (or (or ?v_173 ?v_178) ?v_129)) (or (or ?v_172 ?v_130) ?v_151)) (or (or ?v_85 ?v_140) ?v_179)) (or (or ?v_207 ?v_161) P49)) (or (or P20 ?v_180) ?v_116)) (or (or ?v_244 ?v_100) ?v_91)) (or (or ?v_209 ?v_82) P25)) (or (or ?v_142 ?v_124) ?v_174)) (or (or P3 ?v_33) ?v_181)) (or (or ?v_55 ?v_182) ?v_183)) (or (or ?v_184 ?v_106) P2)) (or (or ?v_162 ?v_8) ?v_86)) (or (or ?v_158 ?v_18) ?v_93)) (or (or ?v_143 P26) ?v_185)) (or (or ?v_162 ?v_123) ?v_186)) (or (or ?v_19 ?v_118) ?v_162)) (or (or ?v_61 ?v_122) ?v_78)) (or (or ?v_15 ?v_187) ?v_97)) (or (or ?v_155 ?v_53) ?v_73)) (or (or ?v_171 ?v_53) ?v_157)) (or (or ?v_117 ?v_126) ?v_37)) (or (or ?v_188 ?v_247) ?v_189)) (or (or ?v_82 ?v_169) ?v_32)) (or (or ?v_136 ?v_199) ?v_106)) (or (or P10 ?v_191) ?v_150)) (or (or ?v_192 P30) ?v_230)) (or (or ?v_164 P37) ?v_54)) (or (or ?v_162 ?v_159) ?v_170)) (or (or P6 ?v_193) P9)) (or (or (not ?v_181) ?v_33) ?v_79)) (or (or ?v_61 ?v_91) ?v_20)) (or (or ?v_122 ?v_22) ?v_28)) (or (or ?v_63 ?v_32) ?v_163)) (or (or P49 P19) ?v_194)) (or (or ?v_195 ?v_106) ?v_11)) (or (or P40 ?v_49) P26)) (or (or ?v_196 P18) ?v_135)) (or (or ?v_146 ?v_66) ?v_198)) (or (or ?v_197 ?v_27) ?v_46)) (or (or ?v_108 ?v_104) ?v_123)) (or (or ?v_19 ?v_66) ?v_25)) (or (or ?v_96 ?v_114) ?v_157)) (or (or ?v_98 ?v_117) ?v_257)) (or (or ?v_198 ?v_92) ?v_199)) (or (or ?v_64 ?v_80) ?v_200)) (or (or P27 ?v_25) ?v_201)) (or (or ?v_202 ?v_29) ?v_203)) (or (or ?v_45 P8) ?v_0)) (or (or P28 ?v_218) ?v_138)) (or (or ?v_64 ?v_189) ?v_51)) (or (or ?v_171 ?v_3) ?v_160)) (or (or P19 ?v_126) ?v_104)) (or (or P5 ?v_204) P3)) (or (or ?v_204 ?v_190) ?v_52)) (or (or ?v_35 ?v_171) ?v_142)) (or (or P2 ?v_205) ?v_78)) (or (or ?v_199 P23) P32)) (or (or ?v_144 ?v_116) ?v_251)) (or (or ?v_35 ?v_214) ?v_98)) (or (or ?v_134 ?v_0) ?v_130)) (or (or ?v_60 ?v_177) ?v_134)) (or (or ?v_196 ?v_206) P33)) (or (or ?v_189 ?v_31) ?v_206)) (or ?v_241 ?v_99)) (or (or ?v_140 P30) ?v_229)) (or (or ?v_185 ?v_193) ?v_18)) (or ?v_254 P39)) (or (or ?v_153 ?v_207) ?v_208)) (or (or ?v_138 ?v_46) ?v_85)) (or (or P46 P31) ?v_174)) (or (or ?v_58 ?v_258) P45)) (or (or ?v_48 P19) ?v_147)) (or (or ?v_196 ?v_9) P31)) (or (or P43 ?v_50) ?v_91)) (or (or ?v_10 P22) P13)) (or (or P47 P2) ?v_80)) (or (or ?v_123 ?v_46) ?v_79)) (or (or ?v_115 ?v_113) ?v_38)) (or (or ?v_152 ?v_240) ?v_208)) (or (or ?v_103 ?v_236) ?v_179)) (or (or P21 ?v_60) ?v_12)) (or (or ?v_154 ?v_210) ?v_176)) (or (or ?v_163 ?v_140) ?v_211)) (or (or ?v_127 ?v_182) ?v_37)) (or (or ?v_212 ?v_75) ?v_97)) (or (or P34 ?v_171) ?v_67)) (or (or ?v_16 ?v_71) ?v_199)) (or (or ?v_171 ?v_196) ?v_167)) (or (or ?v_134 ?v_179) ?v_172)) (or (or ?v_196 P27) ?v_200)) (or (or ?v_205 P14) ?v_124)) (or (or ?v_20 ?v_102) ?v_232)) (or (or ?v_98 ?v_61) ?v_2)) (or (or ?v_154 ?v_59) ?v_85)) (or (or ?v_138 ?v_43) ?v_183)) (or (or ?v_43 P44) ?v_210)) (or (or ?v_179 ?v_187) ?v_108)) (or (or ?v_127 ?v_112) ?v_176)) (or (or ?v_93 P20) ?v_163)) (or (or ?v_129 ?v_22) ?v_118)) (or (or ?v_39 ?v_95) ?v_136)) (or (or ?v_209 ?v_126) ?v_167)) (or (or ?v_44 ?v_30) ?v_202)) (or ?v_252 ?v_143)) (or (or P7 ?v_121) ?v_86)) (or (or ?v_87 P21) P29)) (or (or ?v_201 P23) ?v_58)) (or (or ?v_204 P36) P48)) (or (or ?v_58 ?v_63) ?v_210)) (or (or ?v_172 ?v_175) ?v_213)) (or (or ?v_214 ?v_59) ?v_58)) (or (or ?v_52 ?v_215) ?v_205)) (or (or ?v_167 ?v_93) ?v_61)) (or (or ?v_76 ?v_60) ?v_216)) (or (or ?v_64 ?v_0) ?v_113)) (or (or ?v_49 ?v_183) ?v_126)) (or (or ?v_39 ?v_93) P40)) (or (or ?v_91 ?v_125) ?v_133)) (or (or ?v_194 ?v_210) ?v_217)) (or (or ?v_120 ?v_47) ?v_75)) (or (or ?v_132 ?v_35) ?v_102)) (or (or ?v_181 ?v_130) ?v_218)) (or (or ?v_218 ?v_44) ?v_2)) (or (or ?v_158 ?v_25) ?v_118)) (or (or ?v_203 ?v_227) P28)) (or (or P40 ?v_54) ?v_64)) (or (or ?v_102 ?v_25) ?v_38)) (or (or ?v_32 ?v_18) ?v_48)) (or (or ?v_39 ?v_100) ?v_83)) (or (or P5 P32) ?v_135)) (or (or ?v_177 ?v_38) ?v_87)) (or (or ?v_195 ?v_172) ?v_157)) (or (or ?v_135 ?v_219) ?v_4)) (or (or ?v_30 ?v_145) ?v_134)) (or (or ?v_220 ?v_221) ?v_51)) (or (or P22 ?v_108) ?v_189)) (or (or ?v_25 ?v_222) ?v_64)) (or (or ?v_223 ?v_61) ?v_224)) (or (or ?v_223 ?v_55) ?v_44)) (or (or ?v_161 P12) ?v_23)) (or (or ?v_206 P19) ?v_63)) (or (or ?v_215 P9) ?v_218)) (or (or ?v_87 ?v_126) P11)) (or (or P27 ?v_148) ?v_214)) (or (or ?v_145 P44) P5)) (or (or ?v_30 ?v_130) ?v_186)) (or (or ?v_150 ?v_157) ?v_222)) (or (or ?v_31 ?v_211) ?v_54)) (or (or P28 ?v_101) ?v_124)) (or (or ?v_16 ?v_115) ?v_101)) (or (or P43 ?v_157) ?v_0)) (or (or P26 ?v_40) ?v_213)) (or (or ?v_205 ?v_225) ?v_168)) (or (or ?v_18 ?v_155) P9)) (or (or ?v_28 ?v_126) ?v_209)) (or (or ?v_150 ?v_214) ?v_226)) (or (or ?v_210 ?v_32) ?v_13)) (or (or (not P32) P14) ?v_148)) (or (or ?v_165 ?v_187) ?v_1)) (or (or ?v_136 ?v_181) ?v_228)) (or (or ?v_164 ?v_46) ?v_41)) (or (or ?v_35 ?v_114) P48)) (or (or P33 P48) ?v_1)) (or (or ?v_220 P47) ?v_219)) (or (or ?v_205 P5) ?v_200)) (or (or ?v_120 ?v_227) ?v_207)) (or (or ?v_110 P14) ?v_98)) (or (or ?v_33 ?v_168) ?v_228)) (or (or ?v_214 ?v_229) P39)) (or (or P41 ?v_20) ?v_127)) (or (or ?v_148 ?v_149) ?v_32)) (or (or ?v_102 ?v_50) P44)) (or (or P3 ?v_164) ?v_61)) (or (or ?v_94 ?v_9) ?v_242)) (or (or ?v_231 ?v_177) ?v_80)) (or (or ?v_219 ?v_58) ?v_151)) (or (or ?v_232 ?v_215) ?v_202)) (or (or ?v_131 ?v_20) ?v_53)) (or (or ?v_98 ?v_212) ?v_40)) (or (or ?v_35 ?v_76) ?v_233)) (or (or ?v_174 ?v_24) ?v_124)) (or (or ?v_198 ?v_222) ?v_248)) (or (or ?v_159 ?v_3) ?v_173)) (or (or ?v_146 ?v_191) ?v_77)) (or (or ?v_46 ?v_145) ?v_90)) (or (or ?v_209 ?v_210) ?v_34)) (or (or ?v_81 ?v_141) ?v_4)) (or (or ?v_179 ?v_196) ?v_72)) (or (or ?v_60 ?v_0) P46)) (or (or ?v_173 (not ?v_194)) ?v_234)) (or (or ?v_249 ?v_41) ?v_228)) (or (or ?v_130 ?v_53) P27)) (or (or ?v_152 ?v_19) ?v_235)) (or (or ?v_52 ?v_236) ?v_238)) (or (or ?v_55 ?v_150) ?v_176)) (or (or ?v_80 ?v_22) ?v_107)) (or (or P6 ?v_165) P24)) (or (or ?v_158 ?v_148) ?v_39)) (or (or ?v_176 P3) ?v_3)) (or (or ?v_89 ?v_255) ?v_216)) (or (or ?v_112 ?v_237) ?v_238)) (or (or ?v_58 P23) ?v_60)) (or (or ?v_161 ?v_98) ?v_153)) (or (or ?v_231 ?v_239) ?v_192)) (or (or P15 ?v_117) ?v_128)) (or (or ?v_188 ?v_24) ?v_142)) (or (or ?v_144 ?v_20) ?v_13)) (or (or ?v_229 ?v_142) ?v_214)) (or (or ?v_59 ?v_142) ?v_183)) (or (or P29 ?v_189) ?v_100)) (or (or ?v_171 ?v_240) ?v_6)) (or (or ?v_92 ?v_226) ?v_51)) (or ?v_241 ?v_194)) (or (or ?v_56 ?v_47) ?v_181)) (or (or ?v_236 ?v_142) P17)) (or (or ?v_83 ?v_29) P2)) (or (or P18 ?v_108) ?v_242)) (or (or ?v_201 ?v_153) ?v_64)) (or (or ?v_80 ?v_215) P33)) (or (or ?v_182 ?v_150) ?v_82)) (or (or ?v_75 ?v_207) ?v_73)) (or (or ?v_222 ?v_175) P32)) (or (or ?v_12 ?v_88) ?v_28)) (or (or ?v_112 ?v_208) P2)) (or (or ?v_208 ?v_184) P42)) (or (or ?v_56 ?v_141) ?v_220)) (or (or ?v_134 ?v_181) ?v_243)) (or (or ?v_171 ?v_46) ?v_153)) (or (or ?v_197 P13) ?v_91)) (or (or ?v_160 ?v_184) P34)) (or (or ?v_15 ?v_118) ?v_202)) (or (or ?v_239 ?v_16) ?v_48)) (or (or ?v_232 ?v_195) ?v_45)) (or (or ?v_13 ?v_180) ?v_61)) (or (or ?v_20 ?v_244) ?v_46)) (or (or ?v_85 ?v_141) P30)) (or (or ?v_245 ?v_119) ?v_164)) (or (or ?v_13 ?v_86) ?v_135)) (or (or ?v_197 ?v_35) ?v_137)) (or (or ?v_48 ?v_81) P4)) (or (or ?v_246 ?v_208) P36)) (or (or ?v_221 P5) ?v_139)) (or (or ?v_164 ?v_7) ?v_215)) (or (or ?v_212 ?v_180) ?v_119)) (or (or P34 ?v_71) ?v_126)) (or (or ?v_123 P18) ?v_13)) (or (or P14 ?v_13) ?v_208)) (or (or ?v_11 ?v_101) ?v_203)) (or (or ?v_35 ?v_60) ?v_167)) (or (or ?v_106 ?v_14) ?v_137)) (or (or P10 ?v_199) ?v_28)) (or (or P30 ?v_176) ?v_85)) (or (or ?v_126 ?v_145) ?v_151)) (or (or ?v_184 ?v_205) ?v_6)) (or (or ?v_17 ?v_12) ?v_131)) (or (or ?v_216 P33) ?v_133)) (or (or ?v_233 ?v_34) ?v_129)) (or (or ?v_72 ?v_247) ?v_67)) (or (or P27 ?v_6) ?v_125)) (or (or ?v_13 ?v_128) ?v_248)) (or (or ?v_2 P48) P15)) (or (or ?v_214 ?v_236) ?v_182)) (or (or ?v_212 ?v_4) ?v_85)) (or (or ?v_122 ?v_94) ?v_248)) (or (or ?v_170 ?v_7) ?v_195)) (or (or ?v_134 ?v_150) ?v_178)) (or (or P0 ?v_64) ?v_100)) (or (or ?v_102 ?v_22) P5)) (or (or ?v_103 ?v_97) ?v_169)) (or (or P42 ?v_181) ?v_96)) (or (or P43 ?v_25) ?v_108)) (or (or ?v_162 ?v_212) ?v_249)) (or (or ?v_193 ?v_238) P25)) (or (or ?v_113 ?v_246) ?v_133)) (or (or ?v_173 ?v_250) ?v_61)) (or (or ?v_44 ?v_126) ?v_75)) (or (or ?v_204 ?v_86) ?v_199)) (or (or ?v_205 ?v_196) ?v_76)) (or (or ?v_251 ?v_114) ?v_172)) (or (or P39 ?v_154) ?v_106)) (or (or ?v_203 ?v_213) ?v_59)) (or (or ?v_206 ?v_239) ?v_195)) (or (or ?v_90 ?v_217) ?v_244)) (or (or ?v_237 P34) ?v_216)) (or (or ?v_101 ?v_163) ?v_167)) (or (or ?v_226 P14) ?v_243)) (or (or ?v_124 ?v_196) ?v_170)) (or (or ?v_102 ?v_198) ?v_33)) (or (or ?v_89 ?v_6) ?v_135)) (or (or ?v_69 ?v_106) P38)) (or (or ?v_49 ?v_107) ?v_249)) (or (or P1 P9) P23)) (or (or ?v_121 ?v_1) P11)) (or (or ?v_29 ?v_170) ?v_247)) (or (or ?v_117 P38) ?v_150)) (or (or ?v_17 ?v_151) ?v_141)) (or (or ?v_202 ?v_77) ?v_213)) (or (or P32 ?v_246) ?v_100)) (or (or ?v_244 ?v_122) ?v_93)) (or (or ?v_249 ?v_145) ?v_137)) (or (or ?v_54 ?v_234) ?v_150)) (or (or ?v_52 P26) ?v_124)) (or (or ?v_199 ?v_177) ?v_225)) (or (or ?v_2 P3) ?v_1)) (or (or ?v_130 ?v_40) ?v_30)) (or (or ?v_104 ?v_209) ?v_131)) (or (or ?v_35 P2) ?v_209)) (or ?v_252 ?v_14)) (or (or ?v_24 ?v_133) ?v_246)) (or (or ?v_81 ?v_253) ?v_113)) (or ?v_254 ?v_181)) (or (or ?v_187 ?v_125) ?v_253)) (or (or ?v_208 ?v_206) ?v_156)) (or (or ?v_195 ?v_58) ?v_19)) (or (or ?v_33 ?v_161) ?v_98)) (or (or ?v_142 ?v_90) ?v_174)) (or (or ?v_153 ?v_244) P35)) (or (or ?v_255 ?v_55) P28)) (or (or ?v_50 ?v_154) P36)) (or (or ?v_76 ?v_18) ?v_13)) (or (or ?v_106 ?v_88) ?v_180)) (or (or P41 ?v_187) ?v_249)) (or (or ?v_106 ?v_173) ?v_208)) (or (or ?v_123 P15) ?v_145)) (or (or ?v_32 ?v_238) ?v_113)) (or (or ?v_98 ?v_2) P37)) (or (or ?v_122 ?v_242) ?v_187)) (or (or P1 ?v_28) ?v_147)) (or (or ?v_46 ?v_153) ?v_43)) (or (or ?v_185 ?v_27) P1)) (or (or ?v_256 ?v_148) P36)) (or (or P25 P45) ?v_257)) (or (or ?v_92 ?v_249) ?v_157)) (or (or ?v_62 ?v_255) ?v_106)) (or (or ?v_52 ?v_184) ?v_76)) (or (or ?v_92 ?v_58) ?v_41)) (or (or ?v_111 ?v_49) ?v_258)) (or (or ?v_107 ?v_127) P26)) (or (or ?v_108 ?v_54) P10)) (or (or ?v_169 ?v_23) ?v_213)) (or (or ?v_94 ?v_139) ?v_22)) (or (or ?v_24 ?v_55) ?v_2)) (or (or ?v_149 ?v_171) ?v_230)) (or (or ?v_8 P4) ?v_201)) (or (or ?v_12 ?v_179) ?v_193)) (or (or ?v_123 ?v_83) ?v_130)) (or (or ?v_132 ?v_149) ?v_170)) (or (or ?v_210 ?v_249) ?v_234)) (or (or P25 ?v_212) ?v_105)) (or (or ?v_256 ?v_51) ?v_93)) (or (or ?v_105 ?v_259) P10)) (or (or ?v_182 ?v_185) ?v_180)) (or (or ?v_122 ?v_128) ?v_259)) (or (or ?v_0 ?v_54) ?v_93)) (or (or ?v_240 ?v_93) ?v_231)) (or (or ?v_86 ?v_34) P49)) (or (or ?v_91 ?v_14) ?v_236)) (or (or P34 ?v_46) ?v_217)) (or (or P22 ?v_256) ?v_160)) (or (or ?v_131 ?v_63) ?v_24)) (or (or ?v_255 ?v_100) ?v_234)) (or (or ?v_111 ?v_181) ?v_224)) (or (or ?v_23 P27) ?v_141)) (or (or P31 P4) ?v_253)) (or (or P5 P2) ?v_227)) (or (or ?v_4 ?v_3) ?v_51)) (or (or ?v_95 ?v_134) ?v_117)) (or (or ?v_234 ?v_97) ?v_31)) (or (or ?v_230 P17) ?v_162)) (or (or ?v_82 ?v_134) ?v_81)) (or (or ?v_1 ?v_65) ?v_226)) (or (or P19 ?v_144) ?v_43)) (or (or ?v_61 ?v_27) ?v_30)) (or (or ?v_41 ?v_65) ?v_201)) (or (or ?v_18 ?v_81) P31)) (or (or ?v_89 ?v_61) ?v_107)) (or (or ?v_136 P15) ?v_56)) (or (or ?v_181 ?v_126) ?v_139)) (or (or ?v_9 ?v_77) ?v_231)) (or (or ?v_188 ?v_112) ?v_114)) (or (or ?v_85 ?v_168) ?v_22)) (or (or P16 ?v_155) ?v_52)) (or (or ?v_240 ?v_72) ?v_17)) (or (or ?v_170 ?v_44) ?v_67)) (or (or ?v_149 ?v_243) ?v_229)) (or (or ?v_25 ?v_99) ?v_230)) (or (or ?v_45 P15) ?v_204)) (or (or ?v_157 ?v_134) P49)) (or (or ?v_71 ?v_157) P42)) (or (or ?v_183 ?v_82) ?v_208)) (or (or ?v_177 P24) ?v_111)) (or (or ?v_138 P14) P11)) (or (or ?v_103 ?v_4) ?v_53)) (or (or ?v_117 ?v_14) ?v_74)) (or (or ?v_194 ?v_80) ?v_258)) (or (or ?v_145 ?v_239) ?v_102)) (or (or ?v_97 ?v_131) ?v_41)) (or (or ?v_247 ?v_40) ?v_15)) (or (or P30 ?v_171) ?v_239)) (or (or ?v_131 ?v_62) ?v_170)) (or (or ?v_154 ?v_162) ?v_40)) (or (or ?v_59 ?v_217) ?v_238)) (or (or ?v_251 ?v_245) ?v_80)) (or (or ?v_172 P13) ?v_20)) (or (or ?v_105 ?v_140) ?v_86)) (or (or ?v_130 ?v_235) P39)) (or (or ?v_72 ?v_24) P37)) (or (or ?v_81 ?v_47) ?v_79))))))))))))))))))))))))))))))))))))
(check-sat)
(exit)
